This is Ipopt version 3.12.4, running with linear solver mumps.
NOTE: Other linear solvers might be more efficient (see Ipopt documentation).

Number of nonzeros in equality constraint Jacobian...:        0
Number of nonzeros in inequality constraint Jacobian.:        0
Number of nonzeros in Lagrangian Hessian.............:        0

Total number of variables............................:        3
                     variables with only lower bounds:        0
                variables with lower and upper bounds:        0
                     variables with only upper bounds:        0
Total number of equality constraints.................:        0
Total number of inequality constraints...............:        0
        inequality constraints with only lower bounds:        0
   inequality constraints with lower and upper bounds:        0
        inequality constraints with only upper bounds:        0

iter    objective    inf_pr   inf_du lg(mu)  ||d||  lg(rg) alpha_du alpha_pr  ls
   0  3.2829435e-06 0.00e+00 1.14e-06   0.0 0.00e+00    -  0.00e+00 0.00e+00   0
   1  3.2829434e-06 0.00e+00 1.14e-06 -11.0 1.14e-06    -  1.00e+00 1.00e+00f  1
   2  2.5949579e-06 0.00e+00 1.73e-07 -11.0 4.02e+01    -  1.00e+00 5.00e-01f  2
   3  2.5565582e-06 0.00e+00 1.67e-07 -11.0 2.68e+00    -  1.00e+00 1.00e+00f  1
   4  2.5565582e-06 0.00e+00 1.67e-07 -11.0 1.24e+00    -  1.00e+00 4.55e-13f 42
   5  2.5565582e-06 0.00e+00 1.67e-07 -11.0 1.17e+00    -  1.00e+00 2.27e-13f 43
   6  2.5565582e-06 0.00e+00 1.67e-07 -11.0 1.20e+00    -  1.00e+00 2.27e-13f 43
   7  2.5565582e-06 0.00e+00 1.67e-07 -11.0 1.18e+00    -  1.00e+00 4.55e-13f 42
   8  2.5565582e-06 0.00e+00 1.67e-07 -11.0 1.22e+00    -  1.00e+00 2.27e-13f 43
   9  2.5565582e-06 0.00e+00 1.67e-07 -11.0 1.29e+00    -  1.00e+00 2.27e-13f 43
iter    objective    inf_pr   inf_du lg(mu)  ||d||  lg(rg) alpha_du alpha_pr  ls
  10  2.5565582e-06 0.00e+00 1.67e-07 -11.0 1.19e+00    -  1.00e+00 1.14e-13f 44
  11  2.5565582e-06 0.00e+00 1.67e-07 -11.0 1.12e+00    -  1.00e+00 2.27e-13f 43
  12  2.5565582e-06 0.00e+00 1.67e-07 -11.0 1.29e+00    -  1.00e+00 9.09e-13f 41
  13  2.5565582e-06 0.00e+00 1.67e-07 -11.0 1.19e+00    -  1.00e+00 1.14e-13f 44
  14  2.5745819e-06 0.00e+00 4.39e-09 -11.0 1.23e+00    -  1.00e+00 1.00e+00w  1

Number of Iterations....: 14

                                   (scaled)                 (unscaled)
Objective...............:   2.5745819053156877e-06    2.5745819053156877e-06
Dual infeasibility......:   4.3932602307074824e-09    4.3932602307074824e-09
Constraint violation....:   0.0000000000000000e+00    0.0000000000000000e+00
Complementarity.........:   0.0000000000000000e+00    0.0000000000000000e+00
Overall NLP error.......:   4.3932602307074824e-09    4.3932602307074824e-09


Number of objective function evaluations             = 478
Number of objective gradient evaluations             = 15
Number of equality constraint evaluations            = 0
Number of inequality constraint evaluations          = 0
Number of equality constraint Jacobian evaluations   = 0
Number of inequality constraint Jacobian evaluations = 0
Number of Lagrangian Hessian evaluations             = 0
Total CPU secs in IPOPT (w/o function evaluations)   =      0.048
Total CPU secs in NLP function evaluations           =      0.788

EXIT: Optimal Solution Found.
